NAME : N101P5.783.tour
COMMENT : Cost = 0_783
COMMENT : Found by LKH [Keld Helsgaun] Sun Sep 17 15:52:35 2017
TYPE : TOUR
DIMENSION : 101
TOUR_SECTION
1
45
20
66
49
59
42
93
53
74
91
88
65
35
25
38
69
6
64
16
62
50
73
21
37
47
4
68
83
17
97
15
54
96
57
61
3
81
46
82
100
77
22
40
29
31
51
11
32
52
12
48
19
75
89
33
18
13
56
14
80
90
71
41
24
28
79
58
7
98
78
9
10
86
92
2
70
63
23
43
76
30
55
72
39
99
36
84
34
5
44
27
60
26
101
67
8
95
85
94
87
-1
EOF
